Data path: /scratch/opt/lxu/CFLG/benchmarks/random_A
Instance: r_20_0.2_34.txt
Result path: /scratch/opt/lxu/CFLG/results/random_A
Solver: Gurobi
Time limit: 3600
Formulation: EF
Cover: Large
julia --project=. src/main.jl /scratch/opt/lxu/CFLG/benchmarks/random_A r_20_0.2_34.txt /scratch/opt/lxu/CFLG/results/random_A Gurobi 3600 EF Large
The latest version of Julia in the `release` channel is 1.11.5+0.x64.linux.gnu. You currently have `1.11.4+0.x64.linux.gnu` installed. Run:

  juliaup update

in your terminal shell to install Julia 1.11.5+0.x64.linux.gnu and update the `release` channel to that version.
/scratch/opt/lxu/CFLG/benchmarks/random_A Gurobi 3600.0 /scratch/opt/lxu/CFLG/results/random_A r_20_0.2_34.txt EF Large
/scratch/opt/lxu/CFLG/benchmarks/random_A/r_20_0.2_34.txt

 read graph
data loaded

problem_graph/original graph: node: 20/20 edge: 34/34 dlt: 1.2285408330163121 break_avg_len: 0.6142704165081561 break_max_len: 0.9824660469310703elapsed CPU time: 0.012653 seconds
Set parameter TokenServer to value "solice01.zib.de"
Set parameter Threads to value 1
Set parameter OutputFlag to value 1
Set parameter MIPGap to value 0.0001
Set parameter MIPGapAbs to value 1
Set parameter TimeLimit to value 3599.987347

 model loaded

Gurobi Optimizer version 12.0.1 build v12.0.1rc0 (linux64 - "Debian GNU/Linux 12 (bookworm)")

CPU model: Intel(R) Xeon(R) Gold 5122 CPU @ 3.60GHz, instruction set [SSE2|AVX|AVX2|AVX512]
Thread count: 8 physical cores, 16 logical processors, using up to 1 threads

Non-default parameters:
TimeLimit  3599.987347
MIPGapAbs  1
Threads  1

Optimize a model with 119918 rows, 42296 columns and 318138 nonzeros
Model fingerprint: 0x05947a5e
Variable types: 2074 continuous, 40222 integer (40222 binary)
Coefficient statistics:
  Matrix range     [3e-01, 1e+01]
  Objective range  [1e+00, 1e+00]
  Bounds range     [3e-01, 1e+00]
  RHS range        [2e-03, 1e+01]
Presolve removed 50473 rows and 14927 columns
Presolve time: 4.07s
Presolved: 69445 rows, 27369 columns, 184573 nonzeros
Variable types: 357 continuous, 27012 integer (27012 binary)
Found heuristic solution: objective 34.0000000
Found heuristic solution: objective 33.0000000
Root relaxation presolved: 69186 rows, 27127 columns, 183796 nonzeros


Root simplex log...

Iteration    Objective       Primal Inf.    Dual Inf.      Time
    5121    3.8375477e-05   7.747281e+01   0.000000e+00      5s
   15147    1.3568393e-01   0.000000e+00   0.000000e+00      8s
   15147    1.3568393e-01   0.000000e+00   0.000000e+00      9s

Root relaxation: objective 1.356839e-01, 15147 iterations, 3.96 seconds (6.20 work units)
Total elapsed time = 10.89s (DegenMoves)

    Nodes    |    Current Node    |     Objective Bounds      |     Work
 Expl Unexpl |  Obj  Depth IntInf | Incumbent    BestBd   Gap | It/Node Time

     0     0    0.13568    0 7594   33.00000    0.13568   100%     -   36s
     0     0    0.13568    0 7604   33.00000    0.13568   100%     -   36s
H    0     0                       4.0000000    0.13568  96.6%     -   36s
H    0     0                       3.0000000    0.13568  95.5%     -   36s
     0     0    0.14296    0 9208    3.00000    0.14296  95.2%     -   38s
     0     0    1.97122    0  886    3.00000    1.97122  34.3%     -   45s
     0     0    2.00000    0  791    3.00000    2.00000  33.3%     -   46s

Explored 1 nodes (121764 simplex iterations) in 46.91 seconds (35.11 work units)
Thread count was 1 (of 16 available processors)

Solution count 6: 3 3 4 ... 34

Optimal solution found (tolerance 1.00e-04)
Best objective 3.000000000000e+00, best bound 2.000000000000e+00, gap 33.3333%

User-callback calls 16960, time in user-callback 0.04 sec
Stat(MathOptInterface.OPTIMAL, 3.0, 2.0000000000000004, 0.3333333333333332, -0.9824680293971172, 0.012653, 46.91191291809082, 1, Main.CFLG.EF, "", #undef)
